Instance Name : r102
Date : 2022-07-18
Solution
Route 1 : 73 22 74 72 21
Route 2 : 92 37 98 85 16 86 91 97 13
Route 3 : 83 45 61 84 5 60 89
Route 4 : 39 23 67 55 25 26
Route 5 : 28 76 79 54 24 80 12
Route 6 : 63 64 49 48 82 7 52
Route 7 : 27 69 88 10 31
Route 8 : 62 11 90 20 32 70
Route 9 : 40 53
Route 10 : 42 15 41 75 56 4
Route 11 : 18
Route 12 : 14 44 38 43 100 95
Route 13 : 94 96 99 6
Route 14 : 65 71 81 3 68
Route 15 : 30 51 9 66 1
Route 16 : 50 33 29 78 34 35 77
Route 17 : 87 57 2 58
Route 18 : 36 47 19 8 46 17 93 59
